(set-info :smt-lib-version 2.6)
(set-logic QF_NIA)
(set-info :source |
Generated by: Cristina Borralleras, Daniel Larraz, Albert Oliveras, Enric Rodriguez-Carbonell, Albert Rubio
Generated on: 2017-04-27
Generator: VeryMax
Application: Termination proving
Target solver: barcelogic
|)
(set-info :license "https://creativecommons.org/licenses/by/4.0/")
(set-info :category "industrial")
(set-info :status sat)
(declare-fun Nl1arg11 () Int)
(declare-fun Nl1arg21 () Int)
(declare-fun Nl1arg12 () Int)
(declare-fun Nl1arg22 () Int)
(declare-fun Nl1arg13 () Int)
(declare-fun Nl1arg23 () Int)
(declare-fun lam0n0 () Int)
(declare-fun lam0n1 () Int)
(declare-fun lam0n2 () Int)
(declare-fun lam0n3 () Int)
(declare-fun lam0n4 () Int)
(declare-fun lam0n5 () Int)
(declare-fun lam0n6 () Int)
(declare-fun lam0n7 () Int)
(declare-fun lam0n8 () Int)
(declare-fun UndefCntr0_CT () Int)
(declare-fun Nl1CT1 () Int)
(declare-fun Nl1CT2 () Int)
(declare-fun Nl1CT3 () Int)
(declare-fun UndefCntr0_arg1 () Int)
(declare-fun UndefCntr0_arg2 () Int)
(declare-fun UndefCntr0_undef1 () Int)
(declare-fun lam1n0 () Int)
(declare-fun lam1n1 () Int)
(declare-fun lam1n2 () Int)
(declare-fun lam1n3 () Int)
(declare-fun lam1n4 () Int)
(declare-fun lam1n5 () Int)
(declare-fun lam1n6 () Int)
(declare-fun lam1n7 () Int)
(declare-fun lam1n8 () Int)
(declare-fun lam2n0 () Int)
(declare-fun lam2n1 () Int)
(declare-fun lam2n2 () Int)
(declare-fun lam2n3 () Int)
(declare-fun lam2n4 () Int)
(declare-fun lam2n5 () Int)
(declare-fun lam2n6 () Int)
(declare-fun lam2n7 () Int)
(declare-fun lam2n8 () Int)
(declare-fun lam3n0 () Int)
(declare-fun lam3n1 () Int)
(declare-fun lam3n2 () Int)
(declare-fun lam3n3 () Int)
(declare-fun lam3n4 () Int)
(declare-fun lam3n5 () Int)
(declare-fun lam3n6 () Int)
(declare-fun lam3n7 () Int)
(declare-fun lam3n8 () Int)
(declare-fun lam4n0 () Int)
(declare-fun lam4n1 () Int)
(declare-fun lam4n2 () Int)
(declare-fun lam4n3 () Int)
(declare-fun lam4n5 () Int)
(declare-fun lam4n4 () Int)
(declare-fun lam5n0 () Int)
(declare-fun lam5n1 () Int)
(declare-fun lam5n2 () Int)
(declare-fun lam5n3 () Int)
(declare-fun lam5n5 () Int)
(declare-fun lam5n4 () Int)
(declare-fun lam6n0 () Int)
(declare-fun lam6n1 () Int)
(declare-fun lam6n2 () Int)
(declare-fun lam6n3 () Int)
(declare-fun lam6n5 () Int)
(declare-fun lam6n4 () Int)
(declare-fun undef4 () Int)
(declare-fun undef7 () Int)
(declare-fun undef8 () Int)
(declare-fun arg1 () Int)
(declare-fun arg2 () Int)
(declare-fun FV_arg1_1 () Int)
(declare-fun FV_arg2_1 () Int)
(declare-fun lam7n0 () Int)
(declare-fun lam7n1 () Int)
(declare-fun lam7n2 () Int)
(declare-fun lam7n3 () Int)
(declare-fun lam7n4 () Int)
(declare-fun lam7n5 () Int)
(declare-fun lam8n0 () Int)
(declare-fun lam8n1 () Int)
(declare-fun lam8n2 () Int)
(declare-fun lam8n3 () Int)
(declare-fun lam8n4 () Int)
(declare-fun lam8n5 () Int)
(declare-fun UndefDef0undef1_CT () Int)
(declare-fun UndefDef0undef1_arg1 () Int)
(declare-fun UndefDef0undef1_arg2 () Int)
(declare-fun lam9n0 () Int)
(declare-fun lam9n1 () Int)
(declare-fun lam9n2 () Int)
(declare-fun lam9n3 () Int)
(declare-fun lam9n4 () Int)
(declare-fun lam9n5 () Int)
(declare-fun lam10n0 () Int)
(declare-fun lam10n1 () Int)
(declare-fun lam10n2 () Int)
(declare-fun lam10n3 () Int)
(declare-fun lam10n4 () Int)
(declare-fun lam10n5 () Int)
(declare-fun lam11n0 () Int)
(declare-fun lam11n1 () Int)
(declare-fun lam11n2 () Int)
(declare-fun lam11n3 () Int)
(declare-fun lam11n4 () Int)
(declare-fun lam12n0 () Int)
(declare-fun lam12n1 () Int)
(declare-fun lam12n2 () Int)
(declare-fun lam12n3 () Int)
(declare-fun lam12n4 () Int)
(declare-fun lam12n5 () Int)
(declare-fun lam13n0 () Int)
(declare-fun lam13n1 () Int)
(declare-fun lam13n2 () Int)
(declare-fun lam13n3 () Int)
(declare-fun lam13n4 () Int)
(declare-fun FV_arg1_2 () Int)
(declare-fun FV_arg2_2 () Int)
(declare-fun FV_undef1_2 () Int)
(assert ( and ( <= ( - 1 ) Nl1arg11 ) ( <= Nl1arg11 1 ) ( <= ( - 1 ) Nl1arg21 ) ( <= Nl1arg21 1 ) ( <= ( - 1 ) Nl1arg12 ) ( <= Nl1arg12 1 ) ( <= ( - 1 ) Nl1arg22 ) ( <= Nl1arg22 1 ) ( <= ( - 1 ) Nl1arg13 ) ( <= Nl1arg13 1 ) ( <= ( - 1 ) Nl1arg23 ) ( <= Nl1arg23 1 ) ))
(assert ( or ( and ( >= lam0n0 0 ) ( >= lam0n1 0 ) ( >= lam0n2 0 ) ( >= lam0n3 0 ) ( >= lam0n4 0 ) ( >= lam0n5 0 ) ( >= lam0n6 0 ) ( >= lam0n7 0 ) ( >= lam0n8 0 ) ( > ( + ( * 1 lam0n1 ) ( * 1 lam0n2 ) ( * 50001 lam0n3 ) ( * 50001 lam0n4 ) ( * UndefCntr0_CT lam0n5 ) ( * Nl1CT1 lam0n6 ) ( * Nl1CT2 lam0n7 ) ( * Nl1CT3 lam0n8 ) ( - 1 ) ) 0 ) ( = ( + ( * ( - 1 ) lam0n0 ) ( * ( - 1 ) lam0n1 ) ( * 50000 lam0n3 ) ( * UndefCntr0_arg1 lam0n5 ) ( * Nl1arg11 lam0n6 ) ( * Nl1arg12 lam0n7 ) ( * Nl1arg13 lam0n8 ) ) 0 ) ( = ( + ( * 1 lam0n3 ) ( * 1 lam0n4 ) ( * UndefCntr0_arg2 lam0n5 ) ( * Nl1arg21 lam0n6 ) ( * Nl1arg22 lam0n7 ) ( * Nl1arg23 lam0n8 ) ) 0 ) ( = ( + ( * 1 lam0n0 ) ( * ( - 1 ) lam0n2 ) ( * UndefCntr0_undef1 lam0n5 ) ) 0 ) ) ( and ( >= lam1n0 0 ) ( >= lam1n1 0 ) ( >= lam1n2 0 ) ( >= lam1n3 0 ) ( >= lam1n4 0 ) ( >= lam1n5 0 ) ( >= lam1n6 0 ) ( >= lam1n7 0 ) ( >= lam1n8 0 ) ( > ( + ( * 1 lam1n1 ) ( * 1 lam1n2 ) ( * 50001 lam1n3 ) ( * 50001 lam1n4 ) ( * UndefCntr0_CT lam1n5 ) ( * Nl1CT1 lam1n6 ) ( * Nl1CT2 lam1n7 ) ( * Nl1CT3 lam1n8 ) ( - 1 ( + ( + Nl1CT1 ( * Nl1arg11 0 ) ) ( * Nl1arg21 ( - 1 ) ) ) ) ) 0 ) ( = ( + ( * ( - 1 ) lam1n0 ) ( * ( - 1 ) lam1n1 ) ( * 50000 lam1n3 ) ( * UndefCntr0_arg1 lam1n5 ) ( * Nl1arg11 lam1n6 ) ( * Nl1arg12 lam1n7 ) ( * Nl1arg13 lam1n8 ) ) 0 ) ( = ( + ( * 1 lam1n3 ) ( * 1 lam1n4 ) ( * UndefCntr0_arg2 lam1n5 ) ( * Nl1arg21 lam1n6 ) ( * Nl1arg22 lam1n7 ) ( * Nl1arg23 lam1n8 ) ( - ( + 0 ( * Nl1arg21 1 ) ) ) ) 0 ) ( = ( + ( * 1 lam1n0 ) ( * ( - 1 ) lam1n2 ) ( * UndefCntr0_undef1 lam1n5 ) ( - ( + 0 ( * Nl1arg11 1 ) ) ) ) 0 ) ) ))
(assert ( or ( and ( >= lam0n0 0 ) ( >= lam0n1 0 ) ( >= lam0n2 0 ) ( >= lam0n3 0 ) ( >= lam0n4 0 ) ( >= lam0n5 0 ) ( >= lam0n6 0 ) ( >= lam0n7 0 ) ( >= lam0n8 0 ) ( > ( + ( * 1 lam0n1 ) ( * 1 lam0n2 ) ( * 50001 lam0n3 ) ( * 50001 lam0n4 ) ( * UndefCntr0_CT lam0n5 ) ( * Nl1CT1 lam0n6 ) ( * Nl1CT2 lam0n7 ) ( * Nl1CT3 lam0n8 ) ( - 1 ) ) 0 ) ( = ( + ( * ( - 1 ) lam0n0 ) ( * ( - 1 ) lam0n1 ) ( * 50000 lam0n3 ) ( * UndefCntr0_arg1 lam0n5 ) ( * Nl1arg11 lam0n6 ) ( * Nl1arg12 lam0n7 ) ( * Nl1arg13 lam0n8 ) ) 0 ) ( = ( + ( * 1 lam0n3 ) ( * 1 lam0n4 ) ( * UndefCntr0_arg2 lam0n5 ) ( * Nl1arg21 lam0n6 ) ( * Nl1arg22 lam0n7 ) ( * Nl1arg23 lam0n8 ) ) 0 ) ( = ( + ( * 1 lam0n0 ) ( * ( - 1 ) lam0n2 ) ( * UndefCntr0_undef1 lam0n5 ) ) 0 ) ) ( and ( >= lam2n0 0 ) ( >= lam2n1 0 ) ( >= lam2n2 0 ) ( >= lam2n3 0 ) ( >= lam2n4 0 ) ( >= lam2n5 0 ) ( >= lam2n6 0 ) ( >= lam2n7 0 ) ( >= lam2n8 0 ) ( > ( + ( * 1 lam2n1 ) ( * 1 lam2n2 ) ( * 50001 lam2n3 ) ( * 50001 lam2n4 ) ( * UndefCntr0_CT lam2n5 ) ( * Nl1CT1 lam2n6 ) ( * Nl1CT2 lam2n7 ) ( * Nl1CT3 lam2n8 ) ( - 1 ( + ( + Nl1CT2 ( * Nl1arg12 0 ) ) ( * Nl1arg22 ( - 1 ) ) ) ) ) 0 ) ( = ( + ( * ( - 1 ) lam2n0 ) ( * ( - 1 ) lam2n1 ) ( * 50000 lam2n3 ) ( * UndefCntr0_arg1 lam2n5 ) ( * Nl1arg11 lam2n6 ) ( * Nl1arg12 lam2n7 ) ( * Nl1arg13 lam2n8 ) ) 0 ) ( = ( + ( * 1 lam2n3 ) ( * 1 lam2n4 ) ( * UndefCntr0_arg2 lam2n5 ) ( * Nl1arg21 lam2n6 ) ( * Nl1arg22 lam2n7 ) ( * Nl1arg23 lam2n8 ) ( - ( + 0 ( * Nl1arg22 1 ) ) ) ) 0 ) ( = ( + ( * 1 lam2n0 ) ( * ( - 1 ) lam2n2 ) ( * UndefCntr0_undef1 lam2n5 ) ( - ( + 0 ( * Nl1arg12 1 ) ) ) ) 0 ) ) ))
(assert ( or ( and ( >= lam0n0 0 ) ( >= lam0n1 0 ) ( >= lam0n2 0 ) ( >= lam0n3 0 ) ( >= lam0n4 0 ) ( >= lam0n5 0 ) ( >= lam0n6 0 ) ( >= lam0n7 0 ) ( >= lam0n8 0 ) ( > ( + ( * 1 lam0n1 ) ( * 1 lam0n2 ) ( * 50001 lam0n3 ) ( * 50001 lam0n4 ) ( * UndefCntr0_CT lam0n5 ) ( * Nl1CT1 lam0n6 ) ( * Nl1CT2 lam0n7 ) ( * Nl1CT3 lam0n8 ) ( - 1 ) ) 0 ) ( = ( + ( * ( - 1 ) lam0n0 ) ( * ( - 1 ) lam0n1 ) ( * 50000 lam0n3 ) ( * UndefCntr0_arg1 lam0n5 ) ( * Nl1arg11 lam0n6 ) ( * Nl1arg12 lam0n7 ) ( * Nl1arg13 lam0n8 ) ) 0 ) ( = ( + ( * 1 lam0n3 ) ( * 1 lam0n4 ) ( * UndefCntr0_arg2 lam0n5 ) ( * Nl1arg21 lam0n6 ) ( * Nl1arg22 lam0n7 ) ( * Nl1arg23 lam0n8 ) ) 0 ) ( = ( + ( * 1 lam0n0 ) ( * ( - 1 ) lam0n2 ) ( * UndefCntr0_undef1 lam0n5 ) ) 0 ) ) ( and ( >= lam3n0 0 ) ( >= lam3n1 0 ) ( >= lam3n2 0 ) ( >= lam3n3 0 ) ( >= lam3n4 0 ) ( >= lam3n5 0 ) ( >= lam3n6 0 ) ( >= lam3n7 0 ) ( >= lam3n8 0 ) ( > ( + ( * 1 lam3n1 ) ( * 1 lam3n2 ) ( * 50001 lam3n3 ) ( * 50001 lam3n4 ) ( * UndefCntr0_CT lam3n5 ) ( * Nl1CT1 lam3n6 ) ( * Nl1CT2 lam3n7 ) ( * Nl1CT3 lam3n8 ) ( - 1 ( + ( + Nl1CT3 ( * Nl1arg13 0 ) ) ( * Nl1arg23 ( - 1 ) ) ) ) ) 0 ) ( = ( + ( * ( - 1 ) lam3n0 ) ( * ( - 1 ) lam3n1 ) ( * 50000 lam3n3 ) ( * UndefCntr0_arg1 lam3n5 ) ( * Nl1arg11 lam3n6 ) ( * Nl1arg12 lam3n7 ) ( * Nl1arg13 lam3n8 ) ) 0 ) ( = ( + ( * 1 lam3n3 ) ( * 1 lam3n4 ) ( * UndefCntr0_arg2 lam3n5 ) ( * Nl1arg21 lam3n6 ) ( * Nl1arg22 lam3n7 ) ( * Nl1arg23 lam3n8 ) ( - ( + 0 ( * Nl1arg23 1 ) ) ) ) 0 ) ( = ( + ( * 1 lam3n0 ) ( * ( - 1 ) lam3n2 ) ( * UndefCntr0_undef1 lam3n5 ) ( - ( + 0 ( * Nl1arg13 1 ) ) ) ) 0 ) ) ))
(assert ( and ( <= ( + Nl1CT1 ( * Nl1arg11 FV_arg1_1 ) ( * Nl1arg21 FV_arg2_1 ) ) 0 ) ( <= ( + Nl1CT2 ( * Nl1arg12 FV_arg1_1 ) ( * Nl1arg22 FV_arg2_1 ) ) 0 ) ( <= ( + Nl1CT3 ( * Nl1arg13 FV_arg1_1 ) ( * Nl1arg23 FV_arg2_1 ) ) 0 ) ))
(assert ( or ( not ( = UndefCntr0_arg1 0 ) ) ( not ( = UndefCntr0_arg2 0 ) ) ( not ( = UndefCntr0_undef1 0 ) ) ( = UndefCntr0_CT 0 ) ))
(assert ( or ( and ( = UndefCntr0_arg1 0 ) ( = UndefCntr0_arg2 0 ) ) ( not ( = UndefCntr0_undef1 0 ) ) ))
(assert ( or ( and ( >= lam7n0 0 ) ( >= lam7n1 0 ) ( >= lam7n2 0 ) ( >= lam7n3 0 ) ( >= lam7n4 0 ) ( >= lam7n5 0 ) ( > ( + ( * 1 lam7n0 ) ( * 50001 lam7n1 ) ( * 50001 lam7n2 ) ( * Nl1CT1 lam7n3 ) ( * Nl1CT2 lam7n4 ) ( * Nl1CT3 lam7n5 ) ( - 1 ) ) 0 ) ( = ( + ( * ( - 1 ) lam7n0 ) ( * 50000 lam7n1 ) ( * Nl1arg11 lam7n3 ) ( * Nl1arg12 lam7n4 ) ( * Nl1arg13 lam7n5 ) ) 0 ) ( = ( + ( * 1 lam7n1 ) ( * 1 lam7n2 ) ( * Nl1arg21 lam7n3 ) ( * Nl1arg22 lam7n4 ) ( * Nl1arg23 lam7n5 ) ) 0 ) ) ( and ( and ( >= lam8n0 0 ) ( >= lam8n1 0 ) ( >= lam8n2 0 ) ( >= lam8n3 0 ) ( >= lam8n4 0 ) ( >= lam8n5 0 ) ( > ( + ( * 1 lam8n0 ) ( * 50001 lam8n1 ) ( * 50001 lam8n2 ) ( * Nl1CT1 lam8n3 ) ( * Nl1CT2 lam8n4 ) ( * Nl1CT3 lam8n5 ) ( - 1 ( + ( + 0 0 ) ( * 1 UndefDef0undef1_CT ) ) ) ) 0 ) ( = ( + ( * ( - 1 ) lam8n0 ) ( * 50000 lam8n1 ) ( * Nl1arg11 lam8n3 ) ( * Nl1arg12 lam8n4 ) ( * Nl1arg13 lam8n5 ) ( - ( + ( - 1 ) ( * UndefDef0undef1_arg1 1 ) ) ) ) 0 ) ( = ( + ( * 1 lam8n1 ) ( * 1 lam8n2 ) ( * Nl1arg21 lam8n3 ) ( * Nl1arg22 lam8n4 ) ( * Nl1arg23 lam8n5 ) ( - ( * UndefDef0undef1_arg2 1 ) ) ) 0 ) ) ( and ( >= lam9n0 0 ) ( >= lam9n1 0 ) ( >= lam9n2 0 ) ( >= lam9n3 0 ) ( >= lam9n4 0 ) ( >= lam9n5 0 ) ( > ( + ( * 1 lam9n0 ) ( * 50001 lam9n1 ) ( * 50001 lam9n2 ) ( * Nl1CT1 lam9n3 ) ( * Nl1CT2 lam9n4 ) ( * Nl1CT3 lam9n5 ) ( - 1 ( + 1 ( * ( - 1 ) UndefDef0undef1_CT ) ) ) ) 0 ) ( = ( + ( * ( - 1 ) lam9n0 ) ( * 50000 lam9n1 ) ( * Nl1arg11 lam9n3 ) ( * Nl1arg12 lam9n4 ) ( * Nl1arg13 lam9n5 ) ( - ( * UndefDef0undef1_arg1 ( - 1 ) ) ) ) 0 ) ( = ( + ( * 1 lam9n1 ) ( * 1 lam9n2 ) ( * Nl1arg21 lam9n3 ) ( * Nl1arg22 lam9n4 ) ( * Nl1arg23 lam9n5 ) ( - ( * UndefDef0undef1_arg2 ( - 1 ) ) ) ) 0 ) ) ( or ( = UndefCntr0_undef1 0 ) ( and ( >= lam10n0 0 ) ( >= lam10n1 0 ) ( >= lam10n2 0 ) ( >= lam10n3 0 ) ( >= lam10n4 0 ) ( >= lam10n5 0 ) ( > ( + ( * 1 lam10n0 ) ( * 50001 lam10n1 ) ( * 50001 lam10n2 ) ( * Nl1CT1 lam10n3 ) ( * Nl1CT2 lam10n4 ) ( * Nl1CT3 lam10n5 ) ( - 1 ( + ( + ( + UndefCntr0_CT 0 ) 0 ) ( * UndefCntr0_undef1 UndefDef0undef1_CT ) ) ) ) 0 ) ( = ( + ( * ( - 1 ) lam10n0 ) ( * 50000 lam10n1 ) ( * Nl1arg11 lam10n3 ) ( * Nl1arg12 lam10n4 ) ( * Nl1arg13 lam10n5 ) ( - ( + UndefCntr0_arg1 ( * UndefDef0undef1_arg1 UndefCntr0_undef1 ) ) ) ) 0 ) ( = ( + ( * 1 lam10n1 ) ( * 1 lam10n2 ) ( * Nl1arg21 lam10n3 ) ( * Nl1arg22 lam10n4 ) ( * Nl1arg23 lam10n5 ) ( - ( + UndefCntr0_arg2 ( * UndefDef0undef1_arg2 UndefCntr0_undef1 ) ) ) ) 0 ) ) ) ) ))
(assert ( or ( and ( >= lam11n0 0 ) ( >= lam11n1 0 ) ( >= lam11n2 0 ) ( >= lam11n3 0 ) ( >= lam11n4 0 ) ( > ( + ( * 1 lam11n0 ) ( * ( - 50000 ) lam11n1 ) ( * Nl1CT1 lam11n2 ) ( * Nl1CT2 lam11n3 ) ( * Nl1CT3 lam11n4 ) ( - 1 ) ) 0 ) ( = ( + ( * ( - 1 ) lam11n0 ) ( * ( - 50000 ) lam11n1 ) ( * Nl1arg11 lam11n2 ) ( * Nl1arg12 lam11n3 ) ( * Nl1arg13 lam11n4 ) ) 0 ) ( = ( + ( * ( - 1 ) lam11n1 ) ( * Nl1arg21 lam11n2 ) ( * Nl1arg22 lam11n3 ) ( * Nl1arg23 lam11n4 ) ) 0 ) ) ( and ( >= lam12n0 0 ) ( >= lam12n1 0 ) ( >= lam12n2 0 ) ( >= lam12n3 0 ) ( >= lam12n4 0 ) ( >= lam12n5 0 ) ( > ( + ( * ( - 50000 ) lam12n1 ) ( * ( - 50000 ) lam12n2 ) ( * Nl1CT1 lam12n3 ) ( * Nl1CT2 lam12n4 ) ( * Nl1CT3 lam12n5 ) ( - 1 ) ) 0 ) ( = ( + ( * 1 lam12n0 ) ( * ( - 50000 ) lam12n1 ) ( * Nl1arg11 lam12n3 ) ( * Nl1arg12 lam12n4 ) ( * Nl1arg13 lam12n5 ) ) 0 ) ( = ( + ( * ( - 1 ) lam12n1 ) ( * ( - 1 ) lam12n2 ) ( * Nl1arg21 lam12n3 ) ( * Nl1arg22 lam12n4 ) ( * Nl1arg23 lam12n5 ) ) 0 ) ) ( and ( >= lam13n0 0 ) ( >= lam13n1 0 ) ( >= lam13n2 0 ) ( >= lam13n3 0 ) ( >= lam13n4 0 ) ( > ( + ( * 50001 lam13n1 ) ( * Nl1CT1 lam13n2 ) ( * Nl1CT2 lam13n3 ) ( * Nl1CT3 lam13n4 ) ( - 1 ) ) 0 ) ( = ( + ( * 1 lam13n0 ) ( * 50000 lam13n1 ) ( * Nl1arg11 lam13n2 ) ( * Nl1arg12 lam13n3 ) ( * Nl1arg13 lam13n4 ) ) 0 ) ( = ( + ( * 1 lam13n1 ) ( * Nl1arg21 lam13n2 ) ( * Nl1arg22 lam13n3 ) ( * Nl1arg23 lam13n4 ) ) 0 ) ) ))
(assert ( and ( and ( <= ( + Nl1CT1 ( * Nl1arg11 FV_arg1_2 ) ( * Nl1arg21 FV_arg2_2 ) ) 0 ) ( <= ( + Nl1CT2 ( * Nl1arg12 FV_arg1_2 ) ( * Nl1arg22 FV_arg2_2 ) ) 0 ) ( <= ( + Nl1CT3 ( * Nl1arg13 FV_arg1_2 ) ( * Nl1arg23 FV_arg2_2 ) ) 0 ) ) ( and ( <= ( + ( * ( - 1 ) FV_arg1_2 ) FV_undef1_2 ) 0 ) ( <= ( + 1 ( * ( - 1 ) FV_arg1_2 ) ) 0 ) ( <= ( + 1 ( * ( - 1 ) FV_undef1_2 ) ) 0 ) ( <= ( + 50001 ( * 50000 FV_arg1_2 ) FV_arg2_2 ) 0 ) ( <= ( + 50001 FV_arg2_2 ) 0 ) ) ))
(check-sat)
(exit)
